1284300
78,23,108,9,63,21,22,14,99,52,16,79,47,20,12,95,92,86,98,104,101,57,53,103,88,90,10,48,96,46,70,6,64,87,17,49,75,72,18,61,41,107,32,77,54,105,59,11,39,67,7,27,35,13,38,30,69,68,26,85,74,56,71,37,40,25,36,8,65,76,89,44,4,0,34,97,100,81,33,51,28,58,83,50,1,80,45,93,106,15,24,82,2,62,19,43,31,84,42,60,94,5,29,102,55,73,91,3,66
